p cnf 294 784
1 2 3 0
1 -2 -3 0
-1 2 -3 0
-1 -2 3 0
4 5 6 0
4 -5 -6 0
-4 5 -6 0
-4 -5 6 0
7 8 9 0
7 -8 -9 0
-7 8 -9 0
-7 -8 9 0
10 11 12 0
10 -11 -12 0
-10 11 -12 0
-10 -11 12 0
13 14 15 0
13 -15 0
-13 14 -15 0
-13 -14 15 0
16 17 18 0
16 -17 -18 0
-16 17 -18 0
-16 -17 18 0
19 20 21 0
19 -20 -21 0
-19 20 -21 0
-19 -20 21 0
22 23 -24 0
22 -23 24 0
-22 23 24 0
-22 -23 -24 0
25 26 27 0
25 -26 -27 0
-25 26 -27 0
-25 -26 27 0
28 29 -30 0
28 -29 30 0
-28 29 30 0
-28 -29 -30 0
31 32 33 0
31 -32 -33 0
-31 32 -33 0
-31 -32 33 0
34 35 36 0
34 -35 -36 0
-34 35 -36 0
-34 -35 36 0
37 38 -39 0
37 -38 39 0
-37 38 39 0
-37 -38 -39 0
40 41 42 0
40 -41 -42 0
-40 41 -42 0
-40 -41 42 0
43 44 45 0
43 -44 -45 0
-43 44 -45 0
-43 -44 45 0
46 47 -48 0
46 -47 48 0
-46 47 48 0
-46 -47 -48 0
40 49 -50 0
40 -49 50 0
-40 49 50 0
-40 -49 -50 0
51 52 53 0
51 -52 -53 0
-51 52 -53 0
-51 -52 53 0
22 54 55 0
22 -54 -55 0
-22 54 -55 0
-22 -54 55 0
56 57 -58 0
56 -57 58 0
-56 57 58 0
-56 -57 -58 0
34 49 -59 0
34 -49 59 0
-34 49 59 0
-34 -49 -59 0
60 61 -62 0
60 -61 62 0
-60 61 62 0
-60 -61 -62 0
63 64 65 0
63 -64 -65 0
-63 64 -65 0
-63 -64 65 0
66 67 -68 0
66 -67 68 0
-66 67 68 0
-66 -67 -68 0
69 70 -71 0
69 -70 71 0
-69 70 71 0
-69 -70 -71 0
72 73 -74 0
72 -73 74 0
-72 73 74 0
-72 -73 -74 0
63 75 76 0
63 -75 -76 0
-63 75 -76 0
-63 -75 76 0
77 78 -79 0
77 -78 79 0
-77 78 79 0
-77 -78 -79 0
80 81 -82 0
80 -81 82 0
-80 81 82 0
-80 -81 -82 0
83 84 -85 0
83 -84 85 0
-83 84 85 0
-83 -84 -85 0
86 87 88 0
86 -87 -88 0
-86 87 -88 0
-86 -87 88 0
54 89 90 0
54 -89 -90 0
-54 89 -90 0
-54 -89 90 0
66 91 92 0
66 -91 -92 0
-66 91 -92 0
-66 -91 92 0
93 94 95 0
93 -94 -95 0
-93 94 -95 0
-93 -94 95 0
23 96 -97 0
23 -96 97 0
-23 96 97 0
-23 -96 -97 0
98 99 -100 0
98 -99 100 0
-98 99 100 0
-98 -99 -100 0
69 101 102 0
69 -101 -102 0
-69 101 -102 0
-69 -101 102 0
56 103 -104 0
56 -103 104 0
-56 103 104 0
-56 -103 -104 0
89 103 -105 0
89 -103 105 0
-89 103 105 0
-89 -103 -105 0
106 107 -108 0
106 -107 108 0
-106 107 108 0
-106 -107 -108 0
109 110 111 0
109 -110 -111 0
-109 110 -111 0
-109 -110 111 0
106 112 -113 0
106 -112 113 0
-106 112 113 0
-106 -112 -113 0
43 114 115 0
43 -114 -115 0
-43 114 -115 0
-43 -114 115 0
116 117 118 0
116 -117 -118 0
-116 117 -118 0
-116 -117 118 0
1 119 -120 0
1 -119 120 0
-1 119 120 0
-1 -119 -120 0
121 122 -123 0
121 -122 123 0
-121 122 123 0
-121 -122 -123 0
124 125 126 0
124 -125 -126 0
-124 125 -126 0
-124 -125 126 0
127 128 -129 0
127 -128 129 0
-127 128 129 0
-127 -128 -129 0
13 24 -130 0
13 -24 130 0
-13 24 130 0
-13 -24 -130 0
131 132 133 0
131 -132 -133 0
-131 132 -133 0
-131 -132 133 0
98 134 -135 0
98 -134 135 0
-98 134 135 0
-98 -134 -135 0
136 137 138 0
136 -137 -138 0
-136 137 -138 0
-136 -137 138 0
51 105 -139 0
51 -105 139 0
-51 105 139 0
-51 -105 -139 0
140 141 142 0
140 -141 -142 0
-140 141 -142 0
-140 -141 142 0
60 80 131 0
60 -80 -131 0
-60 80 -131 0
-60 -80 131 0
37 143 144 0
37 -143 -144 0
-37 143 -144 0
-37 -143 144 0
145 146 -147 0
145 -146 147 0
-145 146 147 0
-145 -146 -147 0
57 148 149 0
57 -148 -149 0
-57 148 -149 0
-57 -148 149 0
31 150 151 0
31 -150 -151 0
-31 150 -151 0
-31 -150 151 0
16 136 152 0
16 -136 -152 0
-16 136 -152 0
-16 -136 152 0
61 153 -154 0
61 -153 154 0
-61 153 154 0
-61 -153 -154 0
124 155 -156 0
124 -155 156 0
-124 155 156 0
-124 -155 -156 0
72 140 -157 0
72 -140 157 0
-72 140 157 0
-72 -140 -157 0
155 158 -159 0
155 -158 159 0
-155 158 159 0
-155 -158 -159 0
41 152 160 0
41 -152 -160 0
-41 152 -160 0
-41 -152 160 0
62 125 -161 0
62 -125 161 0
-62 125 161 0
-62 -125 -161 0
162 163 164 0
162 -163 -164 0
-162 163 -164 0
-162 -163 164 0
165 166 -167 0
165 -166 167 0
-165 166 167 0
-165 -166 -167 0
168 169 170 0
168 -169 -170 0
-168 169 -170 0
-168 -169 170 0
165 171 -172 0
165 -171 172 0
-165 171 172 0
-165 -171 -172 0
86 166 -173 0
86 -166 173 0
-86 166 173 0
-86 -166 -173 0
109 174 175 0
109 -174 -175 0
-109 174 -175 0
-109 -174 175 0
46 176 -177 0
46 -176 177 0
-46 176 177 0
-46 -176 -177 0
145 178 -179 0
145 -178 179 0
-145 178 179 0
-145 -178 -179 0
180 181 -182 0
180 -181 182 0
-180 181 182 0
-180 -181 -182 0
121 183 184 0
121 -183 -184 0
-121 183 -184 0
-121 -183 184 0
176 185 -186 0
176 -185 186 0
-176 185 186 0
-176 -185 -186 0
25 32 52 0
25 -32 -52 0
-25 32 -52 0
-25 -32 52 0
114 167 187 0
114 -167 -187 0
-114 167 -187 0
-114 -167 187 0
7 110 188 0
7 -110 -188 0
-7 110 -188 0
-7 -110 188 0
77 189 190 0
77 -189 -190 0
-77 189 -190 0
-77 -189 190 0
70 111 143 0
70 -111 -143 0
-70 111 -143 0
-70 -111 143 0
191 192 -193 0
191 -192 193 0
-191 192 193 0
-191 -192 -193 0
53 194 -195 0
53 -194 195 0
-53 194 195 0
-53 -194 -195 0
196 197 198 0
196 -197 -198 0
-196 197 -198 0
-196 -197 198 0
71 141 199 0
71 -141 -199 0
-71 141 -199 0
-71 -141 199 0
200 201 202 0
200 -201 -202 0
-200 201 -202 0
-200 -201 202 0
47 116 -203 0
47 -116 203 0
-47 116 203 0
-47 -116 -203 0
134 204 -205 0
134 -204 205 0
-134 204 205 0
-134 -204 -205 0
10 194 206 0
10 -194 -206 0
-10 194 -206 0
-10 -194 206 0
207 208 -209 0
207 -208 209 0
-207 208 209 0
-207 -208 -209 0
26 83 210 0
26 -83 -210 0
-26 83 -210 0
-26 -83 210 0
90 127 211 0
90 -127 -211 0
-90 127 -211 0
-90 -127 211 0
189 212 213 0
189 -212 -213 0
-189 212 -213 0
-189 -212 213 0
214 215 216 0
214 -215 -216 0
-214 215 -216 0
-214 -215 216 0
217 218 -219 0
217 -218 219 0
-217 218 219 0
-217 -218 -219 0
220 221 222 0
220 -221 -222 0
-220 221 -222 0
-220 -221 222 0
112 223 224 0
112 -223 -224 0
-112 223 -224 0
-112 -223 224 0
156 225 -226 0
156 -225 226 0
-156 225 226 0
-156 -225 -226 0
227 228 -229 0
227 -228 229 0
-227 228 229 0
-227 -228 -229 0
158 230 231 0
158 -230 -231 0
-158 230 -231 0
-158 -230 231 0
28 126 -232 0
28 -126 232 0
-28 126 232 0
-28 -126 -232 0
159 220 233 0
159 -220 -233 0
-159 220 -233 0
-159 -220 233 0
17 99 171 0
17 -99 -171 0
-17 99 -171 0
-17 -99 171 0
75 162 230 0
75 -162 -230 0
-75 162 -230 0
-75 -162 230 0
207 234 -235 0
207 -234 235 0
-207 234 235 0
-207 -234 -235 0
144 236 -237 0
144 -236 237 0
-144 236 237 0
-144 -236 -237 0
8 96 -238 0
8 -96 238 0
-8 96 238 0
-8 -96 -238 0
239 240 -241 0
239 -240 241 0
-239 240 241 0
-239 -240 -241 0
217 242 -243 0
217 -242 243 0
-217 242 243 0
-217 -242 -243 0
225 244 -245 0
225 -244 245 0
-225 244 245 0
-225 -244 -245 0
14 73 246 0
14 -73 -246 0
-14 73 -246 0
-14 -73 246 0
91 191 247 0
91 -191 -247 0
-91 191 -247 0
-91 -191 247 0
44 119 -244 0
44 -119 244 0
-44 119 244 0
-44 -119 -244 0
210 239 -248 0
210 -239 248 0
-210 239 248 0
-210 -239 -248 0
93 246 249 0
93 -246 -249 0
-93 246 -249 0
-93 -246 249 0
132 168 250 0
132 -168 -250 0
-132 168 -250 0
-132 -168 250 0
55 214 233 0
55 -214 -233 0
-55 214 -233 0
-55 -214 233 0
58 139 -218 0
58 -139 218 0
-58 139 218 0
-58 -139 -218 0
206 251 252 0
206 -251 -252 0
-206 251 -252 0
-206 -251 252 0
4 33 253 0
4 -33 -253 0
-4 33 -253 0
-4 -33 253 0
234 249 -254 0
234 -249 254 0
-234 249 254 0
-234 -249 -254 0
2 133 192 0
2 -133 -192 0
-2 133 -192 0
-2 -133 192 0
29 120 -231 0
29 -120 231 0
-29 120 231 0
-29 -120 -231 0
101 148 255 0
101 -148 -255 0
-101 148 -255 0
-101 -148 255 0
256 257 -258 0
256 -257 258 0
-256 257 258 0
-256 -257 -258 0
19 149 219 0
19 -149 -219 0
-19 149 -219 0
-19 -149 219 0
35 67 117 0
35 -67 -117 0
-35 67 -117 0
-35 -67 117 0
48 64 -183 0
48 -64 183 0
-48 64 183 0
-48 -64 -183 0
251 259 -260 0
251 -259 260 0
-251 259 260 0
-251 -259 -260 0
153 245 261 0
153 -245 -261 0
-153 245 -261 0
-153 -245 261 0
92 122 262 0
92 -122 -262 0
-92 122 -262 0
-92 -122 262 0
137 174 263 0
137 -174 -263 0
-137 174 -263 0
-137 -174 263 0
161 188 262 0
161 -188 -262 0
-161 188 -262 0
-161 -188 262 0
3 199 264 0
3 -199 -264 0
-3 199 -264 0
-3 -199 264 0
94 259 265 0
94 -259 -265 0
-94 259 -265 0
-94 -259 265 0
15 200 -242 0
15 -200 242 0
-15 200 242 0
-15 -200 -242 0
42 100 -266 0
42 -100 266 0
-42 100 266 0
-42 -100 -266 0
78 208 267 0
78 -208 -267 0
-78 208 -267 0
-78 -208 267 0
178 268 -269 0
178 -268 269 0
-178 268 269 0
-178 -268 -269 0
146 203 223 0
146 -203 -223 0
-146 203 -223 0
-146 -203 223 0
123 201 -270 0
123 -201 270 0
-123 201 270 0
-123 -201 -270 0
68 271 -272 0
68 -271 272 0
-68 271 272 0
-68 -271 -272 0
160 221 -273 0
160 -221 273 0
-160 221 273 0
-160 -221 -273 0
59 180 -226 0
59 -180 226 0
-59 180 226 0
-59 -180 -226 0
163 265 274 0
163 -265 -274 0
-163 265 -274 0
-163 -265 274 0
179 260 -275 0
179 -260 275 0
-179 260 275 0
-179 -260 -275 0
81 169 232 0
81 -169 -232 0
-81 169 -232 0
-81 -169 232 0
9 30 -248 0
9 -30 248 0
-9 30 248 0
-9 -30 -248 0
276 277 -278 0
276 -277 278 0
-276 277 278 0
-276 -277 -278 0
45 157 209 0
45 -157 -209 0
-45 157 -209 0
-45 -157 209 0
118 193 274 0
118 -193 -274 0
-118 193 -274 0
-118 -193 274 0
238 279 -280 0
238 -279 280 0
-238 279 280 0
-238 -279 -280 0
275 279 -281 0
275 -279 281 0
-275 279 281 0
-275 -279 -281 0
5 282 283 0
5 -282 -283 0
-5 282 -283 0
-5 -282 283 0
84 202 284 0
84 -202 -284 0
-84 202 -284 0
-84 -202 284 0
82 204 243 0
82 -204 -243 0
-82 204 -243 0
-82 -204 243 0
87 128 212 0
87 -128 -212 0
-87 128 -212 0
-87 -128 212 0
85 196 285 0
85 -196 -285 0
-85 196 -285 0
-85 -196 285 0
215 256 -284 0
215 -256 284 0
-215 256 284 0
-215 -256 -284 0
50 276 -280 0
50 -276 280 0
-50 276 280 0
-50 -276 -280 0
38 250 -253 0
38 -250 253 0
-38 250 253 0
-38 -250 -253 0
150 227 -286 0
150 -227 286 0
-150 227 286 0
-150 -227 -286 0
273 282 287 0
273 -282 -287 0
-273 282 -287 0
-273 -282 287 0
11 175 288 0
11 -175 -288 0
-11 175 -288 0
-11 -175 288 0
20 104 -187 0
20 -104 187 0
-20 104 187 0
-20 -104 -187 0
18 138 247 0
18 -138 -247 0
-18 138 -247 0
-18 -138 247 0
107 113 -288 0
107 -113 288 0
-107 113 288 0
-107 -113 -288 0
79 185 224 0
79 -185 -224 0
-79 185 -224 0
-79 -185 224 0
130 283 -287 0
130 -283 287 0
-130 283 287 0
-130 -283 -287 0
164 289 -290 0
164 -289 290 0
-164 289 290 0
-164 -289 -290 0
216 254 -289 0
216 -254 289 0
-216 254 289 0
-216 -254 -289 0
190 213 -271 0
190 -213 271 0
-190 213 271 0
-190 -213 -271 0
235 252 -270 0
235 -252 270 0
-235 252 270 0
-235 -252 -270 0
76 142 263 0
76 -142 -263 0
-76 142 -263 0
-76 -142 263 0
184 197 272 0
184 -197 -272 0
-184 197 -272 0
-184 -197 272 0
36 135 -240 0
36 -135 240 0
-36 135 240 0
-36 -135 -240 0
27 236 286 0
27 -236 -286 0
-27 236 -286 0
-27 -236 286 0
261 267 291 0
261 -267 -291 0
-261 267 -291 0
-261 -267 291 0
195 257 266 0
195 -257 -266 0
-195 257 -266 0
-195 -257 266 0
88 277 -290 0
88 -277 290 0
-88 277 290 0
-88 -277 -290 0
21 97 -292 0
21 -97 292 0
-21 97 292 0
-21 -97 -292 0
95 177 211 0
95 -177 -211 0
-95 177 -211 0
-95 -177 211 0
6 115 278 0
6 -115 -278 0
-6 115 -278 0
-6 -115 278 0
129 147 173 0
129 -147 -173 0
-129 147 -173 0
-129 -147 173 0
74 237 -293 0
74 -237 293 0
-74 237 293 0
-74 -237 -293 0
154 258 -293 0
154 -258 293 0
-154 258 293 0
-154 -258 -293 0
172 268 294 0
172 -268 -294 0
-172 268 -294 0
-172 -268 294 0
181 241 291 0
181 -241 -291 0
-181 241 -291 0
-181 -241 291 0
198 269 294 0
198 -269 -294 0
-198 269 -294 0
-198 -269 294 0
39 186 222 0
39 -186 -222 0
-39 186 -222 0
-39 -186 222 0
65 264 292 0
65 -264 -292 0
-65 264 -292 0
-65 -264 292 0
151 228 285 0
151 -228 -285 0
-151 228 -285 0
-151 -228 285 0
12 102 -255 0
12 -102 255 0
-12 102 255 0
-12 -102 -255 0
182 205 281 0
182 -205 -281 0
-182 205 -281 0
-182 -205 281 0
108 170 229 0
108 -170 -229 0
-108 170 -229 0
-108 -170 229 0
